Optimal - objective value 90.00000000
     47 z_0_0_4_6                1         6.36363636363636
     69 z_0_1_1_6                1         -2.14285714285714
     95 z_0_1_4_4                1                     7.5
    141 z_0_2_3_10               1                       0
    160 z_0_4_1_5                1                       5
    179 z_0_4_3_2                1                       0
    214 z_1_0_1_4                1                       0
    250 z_1_0_4_10               1         1.66666666666667
    270 z_1_1_1_8                1         -1.42857142857143
    338 z_1_2_3_8                1                       0
    349 z_1_3_0_3                1                       0
    382 z_1_3_4_8                1                       0
    399 z_1_4_1_6                1                       0
    419 z_1_4_3_4                1         -2.32142857142857
    454 z_2_0_1_6                1                      10
    480 z_2_0_4_2                1         -2.12121212121212
    510 z_2_1_1_10               1         1.42857142857143
    531 z_2_1_4_3                1         -1.42857142857143
    577 z_2_3_4_10               1                       5
    594 z_2_4_1_8                1                       0
    613 z_2_4_3_5                1                     2.5
    649 z_3_0_1_8                1         -6.66666666666667
    674 z_3_0_4_3                1                       0
    728 z_3_1_4_7                1         1.42857142857143
    767 z_3_2_3_6                1                       0
    782 z_3_3_0_5                1                       0
    828 z_3_4_1_4                1                       0
    849 z_3_4_3_3                1                       0
    869 w_0_1                    1                       0
    872 w_0_4                    1                       0
    874 w_1_1                    1                       0
    877 w_1_4                    1                       0
    881 w_2_3                    1                      10
    883 w_3_0                    1                      10
    887 w_3_4                    1                      10
    889 w_4_1                    1                       0
    891 w_4_3                    1                      10
    899 o_0_1_0                  1                       0
    900 o_0_1_1                  1                       0
    901 o_0_1_2                  1                       0
    902 o_0_1_3                  1                       0
    903 o_0_1_4                  1                       0
    917 o_0_4_0    1.00000000000005                       0
    918 o_0_4_1    1.00000000000005                       0
    919 o_0_4_2                  1                       0
    920 o_0_4_3                  1                       0
    921 o_0_4_4                  1                       0
    922 o_0_4_5    1.00000000000005                       0
    929 o_1_1_0    0.999999999998857                       0
    930 o_1_1_1    0.999999999998857                       0
    931 o_1_1_2    0.999999999998857                       0
    932 o_1_1_3    0.999999999998857                       0
    933 o_1_1_4    0.999999999998857                       0
    934 o_1_1_5    0.999999999998857                       0
    948 o_1_4_1     1.000000000001         -4.28571428571428
    949 o_1_4_2                  1                       0
    950 o_1_4_3                  1                       0
    951 o_1_4_4                  1                       0
    971 o_2_3_0                  1                       0
    972 o_2_3_1                  1                       0
    973 o_2_3_2                  1                       0
    974 o_2_3_3                  1                       0
    975 o_2_3_4                  1                       0
    976 o_2_3_5                  1                       0
    985 o_3_0_2     1.000000000001                       0
    986 o_3_0_3                  1                       0
    987 o_3_0_4    1.00000000000088                       0
   1009 o_3_4_2                  1                       0
   1010 o_3_4_3     1.000000000002                       0
   1011 o_3_4_4                  1                       0
   1012 o_3_4_5                  1                       0
   1019 o_4_1_0     0.999999999999                       0
   1020 o_4_1_1    1.00000000000061                       0
   1021 o_4_1_2                  1                       0
   1022 o_4_1_3     1.000000000003                       0
   1023 o_4_1_4     0.999999999999                       0
   1024 o_4_1_5     0.999999999999                       0
   1033 o_4_3_2                  1                       0
   1034 o_4_3_3    1.00000000000067                       0
   1035 o_4_3_4    0.999999999999329                       0
   1036 o_4_3_5    0.999999999999329                       0
   1049 e_0_1_0                  1                       0
   1050 e_0_1_1                  1                       0
   1054 e_0_1_5                  1                       0
   1063 e_0_3_2                  1                       0
   1065 e_0_3_4                  1                       0
   1066 e_0_3_5                  1                       0
   1067 e_0_4_0                  1                       0
   1068 e_0_4_1                  1                       0
   1071 e_0_4_4                  1                       0
   1077 e_1_0_4                  1                       0
   1079 e_1_1_0                  1         -2.14285714285714
   1080 e_1_1_1                  1                       0
   1081 e_1_1_2                  1                       0
   1082 e_1_1_3                  1                       0
   1083 e_1_1_4                  1                       0
   1093 e_1_3_2                  1                       0
   1094 e_1_3_3                  1                       0
   1095 e_1_3_4                  1                       0
   1099 e_1_4_2                  1                       0
   1100 e_1_4_3                  1                       0
   1101 e_1_4_4                  1                       0
   1102 e_1_4_5                  1                       0
   1109 e_2_1_0    0.999999999996714                       0
   1110 e_2_1_1    0.999999999997714                       0
   1111 e_2_1_2                  1                    -2.5
   1112 e_2_1_3     1.000000000003                       0
   1113 e_2_1_4     0.999999999999                       0
   1114 e_2_1_5     0.999999999999                       0
   1126 e_2_3_5    0.999999999999329                       0
   1129 e_2_4_2                  1                       0
   1130 e_2_4_3     0.999999999999                       0
   1131 e_2_4_4                  1                      -5
   1132 e_2_4_5                  1                       0
   1135 e_3_0_2    0.999999999998993                       0
   1136 e_3_0_3    0.999999999998993                       0
   1141 e_3_1_2    0.999999999998857                       0
   1142 e_3_1_3    0.999999999998857                       0
   1143 e_3_1_4                  1                       0
   1151 e_3_3_0     1.000000000001                       0
   1152 e_3_3_1                  1                       0
   1154 e_3_3_3                  1                       0
   1158 e_3_4_1    1.00000000000211                       0
   1159 e_3_4_2                  1                       0
   1160 e_3_4_3     1.000000000001         -1.21212121212121
   1176 af_0_1_0                 1                       0
   1177 bf_0_1_1                 1                       0
   1178 af_0_1_1                 1                       0
   1179 bf_0_1_2    0.999999999999                       0
   1180 af_0_1_2                 1                       0
   1181 bf_0_1_3                 1                       0
   1182 af_0_1_3                 1                       0
   1183 bf_0_1_4                 1                       0
   1185 bf_0_1_5                 1                       0
   1212 af_0_4_0                 1                       0
   1213 bf_0_4_1   1.00000000000005                       0
   1214 af_0_4_1                 1                       0
   1215 bf_0_4_2                 1                       0
   1216 af_0_4_2                 1         -2.12121212121212
   1217 bf_0_4_3                 1                       0
   1218 af_0_4_3                 1                       0
   1219 bf_0_4_4   0.999999999999947                       0
   1220 af_0_4_4   1.00000000000005                       0
   1221 bf_0_4_5                 1                       0
   1236 af_1_1_0                 1                       0
   1237 bf_1_1_1                 1                       0
   1238 af_1_1_1                 1                       0
   1239 bf_1_1_2    0.999999999999                       0
   1240 af_1_1_2                 1                       0
   1241 bf_1_1_3                 1                       0
   1242 af_1_1_3                 1                       0
   1243 bf_1_1_4   0.999999999998857                       0
   1244 af_1_1_4                 1                       0
   1245 bf_1_1_5                 1                       0
   1272 af_1_4_0                 1                       0
   1274 af_1_4_1                 1                       0
   1275 bf_1_4_2                 1                       0
   1276 af_1_4_2                 1                       0
   1277 bf_1_4_3    0.999999999999                       0
   1278 af_1_4_3                 1                       0
   1279 bf_1_4_4                 1                       0
   1281 bf_1_4_5                 1                       0
   1320 af_2_3_0                 1                       0
   1321 bf_2_3_1                 1                       0
   1322 af_2_3_1                 1                       0
   1323 bf_2_3_2    0.999999999999                       0
   1324 af_2_3_2    1.000000000001                       0
   1325 bf_2_3_3                 1                       0
   1326 af_2_3_3                 1                       0
   1327 bf_2_3_4                 1                       0
   1328 af_2_3_4                 1                       0
   1329 bf_2_3_5                 1                       0
   1344 af_3_0_0                 1                       0
   1346 af_3_0_1    1.000000000001                       0
   1348 af_3_0_2                 1                       0
   1349 bf_3_0_3    1.000000000001                       0
   1350 af_3_0_3   1.00000000000088                       0
   1351 bf_3_0_4                 1                       0
   1353 bf_3_0_5    0.999999999999                       0
   1392 af_3_4_0                 1                       0
   1394 af_3_4_1    0.999999999999                       0
   1396 af_3_4_2                 1                       0
   1397 bf_3_4_3                 1                       0
   1398 af_3_4_3    1.000000000001                       0
   1399 bf_3_4_4    1.000000000001                       0
   1400 af_3_4_4    1.000000000002                       0
   1401 bf_3_4_5    0.999999999999                       0
   1416 af_4_1_0                 1                       0
   1417 bf_4_1_1   1.00000000000061                       0
   1418 af_4_1_1                 1                       0
   1419 bf_4_1_2   0.999999999999612                       0
   1420 af_4_1_2    1.000000000002                       0
   1421 bf_4_1_3                 1                       0
   1422 af_4_1_3                 1                       0
   1423 bf_4_1_4    1.000000000001                       0
   1424 af_4_1_4    1.000000000001                       0
   1425 bf_4_1_5    0.999999999999                       0
   1440 af_4_3_0                 1                       0
   1442 af_4_3_1    0.999999999999                       0
   1444 af_4_3_2                 1                       0
   1445 bf_4_3_3                 1                       0
   1446 af_4_3_3                 1                       0
   1447 bf_4_3_4   0.999999999999671                       0
   1448 af_4_3_4                 1                       0
   1449 bf_4_3_5   0.999999999999329                       0
